n_machines = 2;
n_resources = 3;
n_jobs = 60;
horizon = 2991;
LB = 1495;
n_jobs_per_resource = [20, 20, 20];
duration = [85, 87, 32, 53, 74, 93, 39, 36, 17, 7, 58, 56, 37, 32, 24, 44, 35, 38, 88, 71, 41, 59, 41, 32, 49, 56, 94, 86, 81, 26, 89, 7, 94, 3, 59, 21, 67, 42, 82, 60, 36, 35, 29, 21, 68, 49, 28, 53, 85, 36, 80, 19, 19, 83, 46, 51, 12, 51, 25, 70]